1 0
  2 30
  3 226
  4 37
  5 24
  6 36
  7 1
  8 31
  9 24
 10 30
 11 24
 12 24
 13 32
 14 24
 15 24
 16 19
 17 24
 18 18
 19 36
 20 115
 21 24
 22 24
 23 61
 24 71
 25 36
 26 18
 27 30
 28 31
 29 36
 30 18
 31 1004
 32 18
 33 34
 34 504
 35 18
 36 39
 37 24
 38 37
 39 24
 40 99
 41 24
 42 24
 43 36
 44 30
 45 25
 46 24
 47 122
 48 196
 49 229
 50 83
 51 18
 52 24
 53 306
 54 18
 55 20
 56 18
 57 24
 58 22
 59 24
 60 18
 61 18
 62 24
 63 24
 64 30
 65 24
 66 40
 67 166
 68 254
 69 187
 70 94
 71 17
 72 285
 73 24
 74 24
 75 205
 76 23
 77 28
 78 51
 79 49
 80 19
 81 262
 82 120
 83 266
 84 704
 85 38
 86 18
 87 30
 88 25
 89 12
 90 18
 91 25
 92 35
 93 18
 94 12
 95 20
 96 1126
 97 9
 98 36
 99 12
100 31
101 96
102 27
103 54
104 137
105 12
106 58
107 206
108 178
109 486
110 36
111 261
112 135
113 135
114 373
115 535
116 42
117 9
118 110
119 36
120 18
121 726
122 187
123 23
124 134
125 47
126 51
127 43
128 79
129 112
130 91
131 232
132 483
133 828
134 11
135 12
